\ This file has been generated by DOcplex
\ ENCODING=ISO-8859-1
\Problem name: random_problem.lp

Minimize
 obj: - 180 x0 - 90 x1 - 45 x2 + 1740 x3 + 870 x4 + 435 x5 - 488 x6 - 244 x7
      - 122 x8 + 1256 x9 + 628 x10 + 314 x11 - 456 x12 - 228 x13 - 114 x14 + [
      2656 x0^2 + 2656 x0*x1 + 1328 x0*x2 + 3776 x0*x3 + 1888 x0*x4 + 944 x0*x5
      + 3904 x0*x6 + 1952 x0*x7 + 976 x0*x8 - 1216 x0*x9 - 608 x0*x10
      - 304 x0*x11 + 4032 x0*x12 + 2016 x0*x13 + 1008 x0*x14 + 664 x1^2
      + 664 x1*x2 + 1888 x1*x3 + 944 x1*x4 + 472 x1*x5 + 1952 x1*x6 + 976 x1*x7
      + 488 x1*x8 - 608 x1*x9 - 304 x1*x10 - 152 x1*x11 + 2016 x1*x12
      + 1008 x1*x13 + 504 x1*x14 + 166 x2^2 + 944 x2*x3 + 472 x2*x4 + 236 x2*x5
      + 976 x2*x6 + 488 x2*x7 + 244 x2*x8 - 304 x2*x9 - 152 x2*x10 - 76 x2*x11
      + 1008 x2*x12 + 504 x2*x13 + 252 x2*x14 + 4128 x3^2 + 4128 x3*x4
      + 2064 x3*x5 + 4288 x3*x6 + 2144 x3*x7 + 1072 x3*x8 + 2048 x3*x9
      + 1024 x3*x10 + 512 x3*x11 + 3072 x3*x12 + 1536 x3*x13 + 768 x3*x14
      + 1032 x4^2 + 1032 x4*x5 + 2144 x4*x6 + 1072 x4*x7 + 536 x4*x8
      + 1024 x4*x9 + 512 x4*x10 + 256 x4*x11 + 1536 x4*x12 + 768 x4*x13
      + 384 x4*x14 + 258 x5^2 + 1072 x5*x6 + 536 x5*x7 + 268 x5*x8 + 512 x5*x9
      + 256 x5*x10 + 128 x5*x11 + 768 x5*x12 + 384 x5*x13 + 192 x5*x14
      + 2944 x6^2 + 2944 x6*x7 + 1472 x6*x8 + 3648 x6*x9 + 1824 x6*x10
      + 912 x6*x11 + 3712 x6*x12 + 1856 x6*x13 + 928 x6*x14 + 736 x7^2
      + 736 x7*x8 + 1824 x7*x9 + 912 x7*x10 + 456 x7*x11 + 1856 x7*x12
      + 928 x7*x13 + 464 x7*x14 + 184 x8^2 + 912 x8*x9 + 456 x8*x10 + 228 x8*x11
      + 928 x8*x12 + 464 x8*x13 + 232 x8*x14 + 8448 x9^2 + 8448 x9*x10
      + 4224 x9*x11 + 1408 x9*x12 + 704 x9*x13 + 352 x9*x14 + 2112 x10^2
      + 2112 x10*x11 + 704 x10*x12 + 352 x10*x13 + 176 x10*x14 + 528 x11^2
      + 352 x11*x12 + 176 x11*x13 + 88 x11*x14 + 2528 x12^2 + 2528 x12*x13
      + 1264 x12*x14 + 632 x13^2 + 632 x13*x14 + 158 x14^2 ]/2
Subject To
 c0: 4 x0 + 2 x1 + x2 + 4 x3 + 2 x4 + x5 + 4 x6 + 2 x7 + x8 + 4 x9 + 2 x10 + x11
     + 4 x12 + 2 x13 + x14 = 7

Bounds
 0 <= x0 <= 1
 0 <= x1 <= 1
 0 <= x2 <= 1
 0 <= x3 <= 1
 0 <= x4 <= 1
 0 <= x5 <= 1
 0 <= x6 <= 1
 0 <= x7 <= 1
 0 <= x8 <= 1
 0 <= x9 <= 1
 0 <= x10 <= 1
 0 <= x11 <= 1
 0 <= x12 <= 1
 0 <= x13 <= 1
 0 <= x14 <= 1

Binaries
 x0 x1 x2 x3 x4 x5 x6 x7 x8 x9 x10 x11 x12 x13 x14
End
